;--------------------------------------------------------------------------
; Benchmark created with Zazu
; Benchmark: 		simpleloopV2_norm_inv1_2xlen3
; Created:   		2022-01-11 18:12
; Generator of the ideal: 
; 		 x - y00 - x00 + y
; Testing invariant: -x*y - x^3*x00*y^2 - x^3*y^2*y00 - x^4*y*y00 + x^4*y^4 + 0*x^5*x00*y^3 + x^3 - x^6*y^6 - x^2 - x^7*y^5 + x^5*y^3 + 0*x^5*y^3*y00 + x^3*x00*y + x^2*y - x^4*y - x^2*x00 - x^2*y00 - x^4*x00*y + x^6*y^5*y00 + x^3*y^3 - x^3*y^2 - x^4*x00*y^3 + 0*x^5*y^4 + 0*x^6*y^3 + 2*x^4*y^2 + x^3*y*y00 + x*x00 + x*y00 + x^6*x00*y^5 + x^5*y - x^4*y^3*y00
;--------------------------------------------------------------------------

(set-logic NIA)
(set-option :produce-proofs true)

(declare-const x00 Int)
(declare-const y00 Int)

(assert 
	(exists
		((x Int) (y Int))
		(and
			(= (+ (- x y00 x00) y) 0)

			(or
				(not (= (- (+ (- (+ (- (+ (- (+ (- (* (- 1) (- x 1) (+ y 1)) (* (- x 1) (- x 1) (- x 1) x00 (+ y 1) (+ y 1)) (* (- x 1) (- x 1) (- x 1) (+ y 1) (+ y 1) y00) (* (- x 1) (- x 1) (- x 1) (- x 1) (+ y 1) y00)) (* (- x 1) (- x 1) (- x 1) (- x 1) (+ y 1) (+ y 1) (+ y 1) (+ y 1)) (* 0 (- x 1) (- x 1) (- x 1) (- x 1) (- x 1) x00 (+ y 1) (+ y 1) (+ y 1)) (* (- x 1) (- x 1) (- x 1))) (* (- x 1) (- x 1) (- x 1) (- x 1) (- x 1) (- x 1) (+ y 1) (+ y 1) (+ y 1) (+ y 1) (+ y 1) (+ y 1)) (* (- x 1) (- x 1)) (* (- x 1) (- x 1) (- x 1) (- x 1) (- x 1) (- x 1) (- x 1) (+ y 1) (+ y 1) (+ y 1) (+ y 1) (+ y 1))) (* (- x 1) (- x 1) (- x 1) (- x 1) (- x 1) (+ y 1) (+ y 1) (+ y 1)) (* 0 (- x 1) (- x 1) (- x 1) (- x 1) (- x 1) (+ y 1) (+ y 1) (+ y 1) y00) (* (- x 1) (- x 1) (- x 1) x00 (+ y 1)) (* (- x 1) (- x 1) (+ y 1))) (* (- x 1) (- x 1) (- x 1) (- x 1) (+ y 1)) (* (- x 1) (- x 1) x00) (* (- x 1) (- x 1) y00) (* (- x 1) (- x 1) (- x 1) (- x 1) x00 (+ y 1))) (* (- x 1) (- x 1) (- x 1) (- x 1) (- x 1) (- x 1) (+ y 1) (+ y 1) (+ y 1) (+ y 1) (+ y 1) y00) (* (- x 1) (- x 1) (- x 1) (+ y 1) (+ y 1) (+ y 1))) (* (- x 1) (- x 1) (- x 1) (+ y 1) (+ y 1)) (* (- x 1) (- x 1) (- x 1) (- x 1) x00 (+ y 1) (+ y 1) (+ y 1))) (* 0 (- x 1) (- x 1) (- x 1) (- x 1) (- x 1) (+ y 1) (+ y 1) (+ y 1) (+ y 1)) (* 0 (- x 1) (- x 1) (- x 1) (- x 1) (- x 1) (- x 1) (+ y 1) (+ y 1) (+ y 1)) (* 2 (- x 1) (- x 1) (- x 1) (- x 1) (+ y 1) (+ y 1)) (* (- x 1) (- x 1) (- x 1) (+ y 1) y00) (* (- x 1) x00) (* (- x 1) y00) (* (- x 1) (- x 1) (- x 1) (- x 1) (- x 1) (- x 1) x00 (+ y 1) (+ y 1) (+ y 1) (+ y 1) (+ y 1)) (* (- x 1) (- x 1) (- x 1) (- x 1) (- x 1) (+ y 1))) (* (- x 1) (- x 1) (- x 1) (- x 1) (+ y 1) (+ y 1) (+ y 1) y00)) 0))
				(not (= (- (+ (- (+ (- (+ (- (+ (- (* (- 1) (+ x 1) (- y 1)) (* (+ x 1) (+ x 1) (+ x 1) x00 (- y 1) (- y 1)) (* (+ x 1) (+ x 1) (+ x 1) (- y 1) (- y 1) y00) (* (+ x 1) (+ x 1) (+ x 1) (+ x 1) (- y 1) y00)) (* (+ x 1) (+ x 1) (+ x 1) (+ x 1) (- y 1) (- y 1) (- y 1) (- y 1)) (* 0 (+ x 1) (+ x 1) (+ x 1) (+ x 1) (+ x 1) x00 (- y 1) (- y 1) (- y 1)) (* (+ x 1) (+ x 1) (+ x 1))) (* (+ x 1) (+ x 1) (+ x 1) (+ x 1) (+ x 1) (+ x 1) (- y 1) (- y 1) (- y 1) (- y 1) (- y 1) (- y 1)) (* (+ x 1) (+ x 1)) (* (+ x 1) (+ x 1) (+ x 1) (+ x 1) (+ x 1) (+ x 1) (+ x 1) (- y 1) (- y 1) (- y 1) (- y 1) (- y 1))) (* (+ x 1) (+ x 1) (+ x 1) (+ x 1) (+ x 1) (- y 1) (- y 1) (- y 1)) (* 0 (+ x 1) (+ x 1) (+ x 1) (+ x 1) (+ x 1) (- y 1) (- y 1) (- y 1) y00) (* (+ x 1) (+ x 1) (+ x 1) x00 (- y 1)) (* (+ x 1) (+ x 1) (- y 1))) (* (+ x 1) (+ x 1) (+ x 1) (+ x 1) (- y 1)) (* (+ x 1) (+ x 1) x00) (* (+ x 1) (+ x 1) y00) (* (+ x 1) (+ x 1) (+ x 1) (+ x 1) x00 (- y 1))) (* (+ x 1) (+ x 1) (+ x 1) (+ x 1) (+ x 1) (+ x 1) (- y 1) (- y 1) (- y 1) (- y 1) (- y 1) y00) (* (+ x 1) (+ x 1) (+ x 1) (- y 1) (- y 1) (- y 1))) (* (+ x 1) (+ x 1) (+ x 1) (- y 1) (- y 1)) (* (+ x 1) (+ x 1) (+ x 1) (+ x 1) x00 (- y 1) (- y 1) (- y 1))) (* 0 (+ x 1) (+ x 1) (+ x 1) (+ x 1) (+ x 1) (- y 1) (- y 1) (- y 1) (- y 1)) (* 0 (+ x 1) (+ x 1) (+ x 1) (+ x 1) (+ x 1) (+ x 1) (- y 1) (- y 1) (- y 1)) (* 2 (+ x 1) (+ x 1) (+ x 1) (+ x 1) (- y 1) (- y 1)) (* (+ x 1) (+ x 1) (+ x 1) (- y 1) y00) (* (+ x 1) x00) (* (+ x 1) y00) (* (+ x 1) (+ x 1) (+ x 1) (+ x 1) (+ x 1) (+ x 1) x00 (- y 1) (- y 1) (- y 1) (- y 1) (- y 1)) (* (+ x 1) (+ x 1) (+ x 1) (+ x 1) (+ x 1) (- y 1))) (* (+ x 1) (+ x 1) (+ x 1) (+ x 1) (- y 1) (- y 1) (- y 1) y00)) 0))
			)
		)
	)
)
(check-sat)
(get-proof)
(exit)
